p cnf 14 64
5 -12 -14 0
-3 7 -11 0
-3 11 -13 0
-3 4 -9 0
-2 3 5 0
2 6 14 0
-9 10 11 0
-2 -8 9 0
3 5 12 0
-2 -8 10 0
-6 -7 8 0
-5 13 -14 0
-2 -7 11 0
-2 11 14 0
1 -6 -9 0
-8 -9 -11 0
5 -7 -11 0
4 -12 14 0
-1 -2 11 0
-2 3 12 0
8 -12 -13 0
5 -9 -11 0
4 -5 12 0
-3 -4 7 0
-9 12 -13 0
4 5 7 0
2 -6 14 0
3 -5 -6 0
-7 8 10 0
4 11 -14 0
5 -11 14 0
-1 11 12 0
-3 -5 -11 0
4 -7 10 0
-8 11 -13 0
-5 -10 11 0
-4 -5 12 0
3 -6 9 0
-5 11 14 0
1 -3 14 0
-5 12 -13 0
-7 8 -10 0
-3 4 -8 0
-1 -5 7 0
1 -3 -7 0
-4 8 12 0
7 11 14 0
3 -4 12 0
-5 8 -9 0
3 5 -7 0
1 -6 13 0
-1 5 9 0
-9 -10 -12 0
-11 -12 -14 0
-6 -7 13 0
-9 13 -14 0
-9 -10 12 0
3 8 -10 0
1 -8 12 0
-1 -6 -10 0
-6 10 -13 0
2 7 -8 0
-2 7 -13 0
2 -3 -10 0
